multiobj/instances/uniform/Ter.6.4.1.00.1.in
6 4
0 598 743 1 484 832 
598 0 703 248 94 391 
743 703 0 593 298 516 
1 248 593 0 664 813 
484 94 298 664 0 822 
832 391 516 813 822 0 
0 377 211 912 179 166 
377 0 206 979 441 746 
211 206 0 414 408 896 
912 979 414 0 578 210 
179 441 408 578 0 468 
166 746 896 210 468 0 
0 377 211 912 179 166 
377 0 206 979 441 746 
211 206 0 414 408 896 
912 979 414 0 578 210 
179 441 408 578 0 468 
166 746 896 210 468 0 
0 377 211 912 179 166 
377 0 206 979 441 746 
211 206 0 414 408 896 
912 979 414 0 578 210 
179 441 408 578 0 468 
166 746 896 210 468 0 
0 377 211 912 179 166 
377 0 206 979 441 746 
211 206 0 414 408 896 
912 979 414 0 578 210 
179 441 408 578 0 468 
166 746 896 210 468 0 
