multiobj/solutions/Ter.6.4.1.00.1.out
1 4
0 1 2 3 5 4 
5919312 5919312 5919312 5919312 
